log/Reading instance from file data/g08.dat
Number of nodes: 401
Number of edges: 4400
initialize CPLEX ... done.
Calling CPLEX solve ...
Version identifier: 12.10.0.0 | 2019-11-26 | 843d4de
CPXPARAM_Threads                                 1
CPXPARAM_TimeLimit                               3600
CPXPARAM_WorkMem                                 8192
Tried aggregator 1 time.
MIP Presolve eliminated 803 rows and 402 columns.
MIP Presolve modified 10400 coefficients.
Reduced MIP has 9603 rows, 9200 columns, and 51600 nonzeros.
Reduced MIP has 8800 binaries, 400 generals, 0 SOSs, and 0 indicators.
Presolve time = 0.04 sec. (35.00 ticks)
Probing time = 0.01 sec. (4.53 ticks)
Tried aggregator 1 time.
Detecting symmetries...
Reduced MIP has 9603 rows, 9200 columns, and 51600 nonzeros.
Reduced MIP has 8800 binaries, 400 generals, 0 SOSs, and 0 indicators.
Presolve time = 0.04 sec. (31.41 ticks)
Probing time = 0.01 sec. (4.12 ticks)
Clique table members: 12401.
MIP emphasis: balance optimality and feasibility.
MIP search method: dynamic search.
Parallel mode: none, using 1 thread.
Root relaxation solution time = 0.01 sec. (22.47 ticks)

        Nodes                                         Cuts/
   Node  Left     Objective  IInf  Best Integer    Best Bound    ItCnt     Gap

      0     0      494.9012   148                    494.9012      440         
      0     0      827.7683   148                   Cuts: 351      960         
      0     0     1013.1636   148                   Cuts: 195     1296         
      0     0     1154.3793   148                   Cuts: 259     1565         
      0     0     1278.6517   148                   Cuts: 172     1828         
      0     0     1371.3801   148                   Cuts: 172     2073         
Detecting symmetries...
      0     0     1433.1452   148                   Cuts: 137     2255         
      0     0     1473.0520   148                    Cuts: 96     2431         
      0     0     1496.2114   148                   Cuts: 118     2582         
      0     0     1516.8909   148                    Cuts: 72     2818         
      0     0     1530.2250   148                    Cuts: 87     2885         
      0     0     1540.5476   148                    Cuts: 41     2993         
      0     0     1543.9250   148                    Cuts: 18     3036         
      0     0     1545.6913   148                    Cuts: 27     3131         
      0     0     1548.4874   148                    Cuts: 41     3205         
      0     0     1550.5818   148                    Cuts: 33     3274         
      0     0     1552.7671   148                    Cuts: 51     3311         
      0     0     1554.5166   148                    Cuts: 21     3365         
      0     0     1556.9792   148                    Cuts: 21     3403         
      0     0     1557.0294   148                    Cuts: 27     3440         
      0     0     1557.5023   148                    Cuts: 19     3455         
      0     0     1558.2895   148                     Cuts: 5     3475         
      0     0     1558.6607   148                     Cuts: 8     3486         
      0     0     1561.5056   148                     Cuts: 6     3522         
      0     0     1564.0252   148                     Cuts: 5     3579         
      0     0     1567.5062   148                    Cuts: 10     3614         
      0     0     1568.0123   148                     Cuts: 3     3628         
      0     0     1570.1429   148                    Cuts: 11     3720         
      0     0     1570.3799   148                    Cuts: 12     3738         
Detecting symmetries...
      0     2     1570.3799    92                   1570.6169     3738         
Elapsed time = 2.64 sec. (3973.48 ticks, tree = 0.01 MB, solutions = 0)
     36    38     1643.0864    50                   1570.6169     4678         
*    50+   49                         1817.0000     1570.6169            13.56%
     64    65     1718.8642    17     1817.0000     1570.6169     5338   13.56%
     94    92     1766.8542    36     1817.0000     1570.6169     6391   13.56%
    131   127     1613.0741     6     1817.0000     1573.7033     7141   13.39%
*   143    75      integral     0     1677.0000     1573.7033     7453    6.16%
    172    95     1573.7078   102     1677.0000     1573.7078     8152    6.16%
*   200+  117                         1657.0000     1573.7078             5.03%
    221   134        cutoff           1657.0000     1573.7078     8691    5.03%
    271   168     1573.7078    83     1657.0000     1573.7078     9081    5.03%
    318   206     1573.8024    51     1657.0000     1573.7152     9769    5.03%
*   400+  262                         1637.0000     1573.7187             3.87%
    510   352     1575.0066    55     1637.0000     1573.7577    13051    3.86%
Elapsed time = 4.56 sec. (6926.63 ticks, tree = 1.87 MB, solutions = 4)
    721   519     1606.9924    38     1637.0000     1573.8507    15896    3.86%
    888   643     1574.8470    96     1637.0000     1573.9984    19235    3.85%

Performing restart 1

Repeating presolve.
Tried aggregator 2 times.
MIP Presolve eliminated 7224 rows and 7150 columns.
MIP Presolve modified 981 coefficients.
Aggregator did 124 substitutions.
Reduced MIP has 2255 rows, 1926 columns, and 8183 nonzeros.
Reduced MIP has 1592 binaries, 334 generals, 0 SOSs, and 0 indicators.
Presolve time = 0.02 sec. (17.73 ticks)
Tried aggregator 1 time.
Reduced MIP has 2255 rows, 1926 columns, and 8183 nonzeros.
Reduced MIP has 1592 binaries, 334 generals, 0 SOSs, and 0 indicators.
Presolve time = 0.01 sec. (6.13 ticks)
Represolve time = 0.06 sec. (57.60 ticks)
    977     0     1573.5732   129     1637.0000      Cuts: 82    21757    3.85%
    977     0     1577.1000   129     1637.0000      Cuts: 34    21807    3.66%
    977     0     1577.3000   129     1637.0000      Cuts: 19    21839    3.65%
    977     0     1577.3000   129     1637.0000       Cuts: 4    21842    3.65%
    977     0     1577.3000   129     1637.0000   LiftProj: 2    21850    3.65%
    977     2     1577.3000   117     1637.0000     1577.4615    21850    3.64%
   1018    30     1584.6516    83     1637.0000     1580.0000    22990    3.48%
*  1037    42      integral     0     1625.0000     1580.5309    23359    2.74%
*  1076    52      integral     0     1623.0000     1581.2716    24150    2.57%
*  1176+   88                         1620.0000     1584.0000             2.22%
   1235   114     1597.2622    90     1620.0000     1585.3333    28017    2.14%
   1375   154        cutoff           1620.0000     1588.0500    31096    1.97%
   1539   173     1597.3714   107     1620.0000     1594.4568    35975    1.58%
   1743   123        cutoff           1620.0000     1602.8642    40665    1.06%
Elapsed time = 10.96 sec. (15407.25 ticks, tree = 0.40 MB, solutions = 7)

GUB cover cuts applied:  1
Clique cuts applied:  282
Cover cuts applied:  101
Implied bound cuts applied:  177
Flow cuts applied:  17
Mixed integer rounding cuts applied:  100
Zero-half cuts applied:  55
Lift and project cuts applied:  12
Gomory fractional cuts applied:  19

Root node processing (before b&c):
  Real time             =    2.61 sec. (3954.31 ticks)
Sequential b&c:
  Real time             =    8.83 sec. (11984.39 ticks)
                          ------------
Total (root+branch&cut) =   11.44 sec. (15938.70 ticks)
SOLUTION:

x(0,392)[0..1]  = 1
x(2,140)[0..1]  = 1
x(2,92)[0..1]  = 1
x(8,248)[0..1]  = 1
x(8,348)[0..1]  = 1
x(8,148)[0..1]  = 1
x(19,253)[0..1]  = 1
x(35,183)[0..1]  = 1
x(38,237)[0..1]  = 1
x(51,95)[0..1]  = 1
x(60,247)[0..1]  = 1
x(67,326)[0..1]  = 1
x(67,235)[0..1]  = 1
x(88,122)[0..1]  = 1
x(92,276)[0..1]  = 1
x(92,350)[0..1]  = 1
x(95,314)[0..1]  = 1
x(103,387)[0..1]  = 1
x(103,275)[0..1]  = 1
x(122,376)[0..1]  = 1
x(122,258)[0..1]  = 1
x(122,261)[0..1]  = 1
x(132,180)[0..1]  = 1
x(135,178)[0..1]  = 1
x(135,302)[0..1]  = 1
x(140,161)[0..1]  = 1
x(145,177)[0..1]  = 1
x(148,174)[0..1]  = 1
x(148,298)[0..1]  = 1
x(161,383)[0..1]  = 1
x(180,334)[0..1]  = 1
x(197,318)[0..1]  = 1
x(230,373)[0..1]  = 1
x(230,332)[0..1]  = 1
x(261,391)[0..1]  = 1
x(276,286)[0..1]  = 1
x(289,291)[0..1]  = 1
x(302,339)[0..1]  = 1
x(302,355)[0..1]  = 1
x(302,359)[0..1]  = 1
x(303,352)[0..1]  = 1
x(348,370)[0..1]  = 1
x(359,2)[0..1]  = 1
x(37,7)[0..1]  = 1
x(334,8)[0..1]  = 1
x(230,19)[0..1]  = 1
x(253,26)[0..1]  = 1
x(35,28)[0..1]  = 1
x(174,35)[0..1]  = 1
x(38,37)[0..1]  = 1
x(254,38)[0..1]  = 1
x(88,51)[0..1]  = 1
x(289,60)[0..1]  = 1
x(176,67)[0..1]  = 1
x(140,78)[0..1]  = 1
x(392,88)[0..1]  = 1
x(230,101)[0..1]  = 1
x(376,103)[0..1]  = 1
x(135,111)[0..1]  = 1
x(177,115)[0..1]  = 1
x(171,132)[0..1]  = 1
x(391,135)[0..1]  = 1
x(289,145)[0..1]  = 1
x(176,146)[0..1]  = 1
x(248,152)[0..1]  = 1
x(391,171)[0..1]  = 1
x(195,176)[0..1]  = 1
x(254,179)[0..1]  = 1
x(247,195)[0..1]  = 1
x(285,197)[0..1]  = 1
x(253,203)[0..1]  = 1
x(314,209)[0..1]  = 1
x(387,213)[0..1]  = 1
x(258,230)[0..1]  = 1
x(334,254)[0..1]  = 1
x(334,263)[0..1]  = 1
x(326,285)[0..1]  = 1
x(334,289)[0..1]  = 1
x(387,303)[0..1]  = 1
x(391,389)[0..1]  = 1
z(2)[0..1]  = 1
z(7)[0..1]  = 1
z(8)[0..1]  = 1
z(19)[0..1]  = 1
z(26)[0..1]  = 1
z(28)[0..1]  = 1
z(35)[0..1]  = 1
z(37)[0..1]  = 1
z(38)[0..1]  = 1
z(51)[0..1]  = 1
z(60)[0..1]  = 1
z(67)[0..1]  = 1
z(78)[0..1]  = 1
z(88)[0..1]  = 1
z(92)[0..1]  = 1
z(95)[0..1]  = 1
z(101)[0..1]  = 1
z(103)[0..1]  = 1
z(111)[0..1]  = 1
z(115)[0..1]  = 1
z(122)[0..1]  = 1
z(132)[0..1]  = 1
z(135)[0..1]  = 1
z(140)[0..1]  = 1
z(145)[0..1]  = 1
z(146)[0..1]  = 1
z(148)[0..1]  = 1
z(152)[0..1]  = 1
z(161)[0..1]  = 1
z(171)[0..1]  = 1
z(174)[0..1]  = 1
z(176)[0..1]  = 1
z(177)[0..1]  = 1
z(178)[0..1]  = 1
z(179)[0..1]  = 1
z(180)[0..1]  = 1
z(183)[0..1]  = 1
z(195)[0..1]  = 1
z(197)[0..1]  = 1
z(203)[0..1]  = 1
z(209)[0..1]  = 1
z(213)[0..1]  = 1
z(230)[0..1]  = 1
z(235)[0..1]  = 1
z(237)[0..1]  = 1
z(247)[0..1]  = 1
z(248)[0..1]  = 1
z(253)[0..1]  = 1
z(254)[0..1]  = 1
z(258)[0..1]  = 1
z(261)[0..1]  = 1
z(263)[0..1]  = 1
z(275)[0..1]  = 1
z(276)[0..1]  = 1
z(285)[0..1]  = 1
z(286)[0..1]  = 1
z(289)[0..1]  = 1
z(291)[0..1]  = 1
z(298)[0..1]  = 1
z(302)[0..1]  = 1
z(303)[0..1]  = 1
z(314)[0..1]  = 1
z(318)[0..1]  = 1
z(326)[0..1]  = 1
z(332)[0..1]  = 1
z(334)[0..1]  = 1
z(339)[0..1]  = 1
z(348)[0..1]  = 1
z(350)[0..1]  = 1
z(352)[0..1]  = 1
z(355)[0..1]  = 1
z(359)[0..1]  = 1
z(370)[0..1]  = 1
z(373)[0..1]  = 1
z(376)[0..1]  = 1
z(383)[0..1]  = 1
z(387)[0..1]  = 1
z(389)[0..1]  = 1
z(391)[0..1]  = 1
z(392)[0..1]  = 1


CPLEX finished.

CPLEX status: Optimal
Branch-and-Bound nodes: 1902
Objective value: 1620
CPU time: 11.41

